Version identifier: 12.10.0.0 | 2019-11-26 | 843d4de
CPXPARAM_WorkMem                                 16384
CPXPARAM_MIP_Limits_TreeMemory                   24576
Tried aggregator 2 times.
MIP Presolve modified 15 coefficients.
Aggregator did 50 substitutions.
Reduced MIP has 265 rows, 300 columns, and 1280 nonzeros.
Reduced MIP has 300 binaries, 0 generals, 0 SOSs, and 0 indicators.
Presolve time = 0,00 sec. (1,35 ticks)
Found incumbent of value 930,000000 after 0,00 sec. (2,05 ticks)
Probing time = 0,00 sec. (0,64 ticks)
Tried aggregator 1 time.
Detecting symmetries...
MIP Presolve eliminated 50 rows and 0 columns.
MIP Presolve added 100 rows and 0 columns.
Reduced MIP has 315 rows, 300 columns, and 1330 nonzeros.
Reduced MIP has 300 binaries, 0 generals, 0 SOSs, and 0 indicators.
Presolve time = 0,00 sec. (1,60 ticks)
Probing time = 0,00 sec. (0,63 ticks)
Clique table members: 940.
MIP emphasis: balance optimality and feasibility.
MIP search method: dynamic search.
Parallel mode: deterministic, using up to 16 threads.
Root relaxation solution time = 0,00 sec. (1,00 ticks)

        Nodes                                         Cuts/
   Node  Left     Objective  IInf  Best Integer    Best Bound    ItCnt     Gap

*     0+    0                          930,0000        0,0000           100,00%
*     0+    0                          333,0000        0,0000           100,00%
      0     0      186,0000   120      333,0000      186,0000      138   44,14%
      0     0      186,0000   120      333,0000      Cuts: 18      165   44,14%
      0     0      186,0000   120      333,0000       Cuts: 8      179   44,14%
*     0+    0                          323,0000      186,0000            42,41%
*     0+    0                          320,0000      186,0000            41,87%
      0     2      186,0000   120      320,0000      186,0000      179   41,87%
Elapsed time = 0,07 sec. (30,08 ticks, tree = 0,02 MB, solutions = 4)
*   127+   19                          316,0000      189,8221            39,93%

Performing restart 1

Repeating presolve.
Tried aggregator 1 time.
Reduced MIP has 315 rows, 300 columns, and 1330 nonzeros.
Reduced MIP has 300 binaries, 0 generals, 0 SOSs, and 0 indicators.
Presolve time = 0,00 sec. (0,81 ticks)
Tried aggregator 1 time.
Reduced MIP has 315 rows, 300 columns, and 1330 nonzeros.
Reduced MIP has 300 binaries, 0 generals, 0 SOSs, and 0 indicators.
Presolve time = 0,00 sec. (1,11 ticks)
Represolve time = 0,01 sec. (6,66 ticks)
   6418     0      187,5000   120      316,0000      Cuts: 13    83166    7,52%
   6418     0      189,1763   120      316,0000      Cuts: 10    83183    7,52%
   6418     0      190,7890   120      316,0000      Fract: 5    83217    7,52%
   6418     0      191,2711   120      316,0000       Cuts: 6    83233    7,52%
   6418     0      191,8684   120      316,0000       Cuts: 3    83270    7,52%
   6418     2      191,8684   240      316,0000      292,2477    83270    7,52%
   6976   158      299,1458    47      316,0000      292,2477    94793    7,52%
  10978  2535      292,2778    31      316,0000      292,2477   208656    7,52%
  13598  3719      295,5000    11      316,0000      292,2477   305974    7,52%

Performing restart 2

Repeating presolve.
Tried aggregator 1 time.
Reduced MIP has 315 rows, 300 columns, and 1334 nonzeros.
Reduced MIP has 300 binaries, 0 generals, 0 SOSs, and 0 indicators.
Presolve time = 0,00 sec. (0,81 ticks)
Tried aggregator 1 time.
Reduced MIP has 315 rows, 300 columns, and 1334 nonzeros.
Reduced MIP has 300 binaries, 0 generals, 0 SOSs, and 0 indicators.
Presolve time = 0,00 sec. (1,03 ticks)
Represolve time = 0,02 sec. (15,81 ticks)
  14649     0      193,0856   240      316,0000       Cuts: 8   351447    7,52%
  14649     0      193,7779   240      316,0000       Cuts: 5   351491    7,52%
  14649     0      193,9843   240      316,0000       Cuts: 4   351509    7,52%
  14649     0      194,6155   240      316,0000       Cuts: 5   351548    7,52%
  14649     0      195,0582   240      316,0000       Cuts: 5   351580    7,52%
  14649     0      195,0690   240      316,0000       Cuts: 2   351591    7,52%
  14649     0      195,1378   240      316,0000       Cuts: 4   351609    7,52%
  14649     0      195,1378   240      316,0000   ZeroHalf: 1   351611    7,52%
  14649     2      195,1378   240      316,0000      292,2477   351611    7,52%
  16927    13        cutoff            316,0000      292,2477   413137    7,52%

Cover cuts applied:  461
Zero-half cuts applied:  4
Gomory fractional cuts applied:  40

Root node processing (before b&c):
  Real time             =    0,06 sec. (29,92 ticks)
Parallel b&c, 16 threads:
  Real time             =    2,36 sec. (1735,68 ticks)
  Sync time (average)   =    0,67 sec.
  Wait time (average)   =    0,01 sec.
                          ------------
Total (root+branch&cut) =    2,42 sec. (1765,60 ticks)
